80 
300 
-0.5 0 0 0
0.5 0 0 -126
-7 -7 35 -28
-7 -5 -35 -89
-7 -3 35 -12
-7 -1 35 -10
-7 1 35 -26
-7 3 -35 -120
-7 5 35 -20
-7 7 -35 -70
-5 -7 -35 -131
-5 -5 -25 -67
-5 -3 -25 -128
-5 -1 25 -11
-5 1 -25 -101
-5 3 -25 -110
-5 5 -25 -69
-5 7 -35 -134
-3 -7 -35 -118
-3 -5 -25 -118
-3 -3 15 -25
-3 -1 -15 -137
-3 1 15 -20
-3 3 15 -24
-3 5 -25 -76
-3 7 -35 -63
-1 -7 -35 -64
-1 -5 -25 -125
-1 -3 -15 -122
-1 -1 5 -20
-1 1 5 -18
-1 3 -15 -97
-1 5 -25 -129
-1 7 35 -12
1 -7 35 -18
1 -5 25 -24
1 -3 15 -18
1 -1 -5 -86
1 1 -5 -135
1 3 15 -27
1 5 -25 -127
1 7 35 -14
3 -7 -35 -134
3 -5 25 -10
3 -3 15 -28
3 -1 -15 -128
3 1 15 -25
3 3 -15 -72
3 5 -25 -139
3 7 35 -25
5 -7 35 -25
5 -5 -25 -107
5 -3 -25 -86
5 -1 25 -19
5 1 -25 -63
5 3 -25 -114
5 5 25 -19
5 7 -35 -107
7 -7 35 -14
7 -5 35 -22
7 -3 -35 -133
7 -1 35 -10
7 1 -35 -137
7 3 35 -18
7 5 -35 -75
7 7 -35 -134
